1 2
2 2
3 1
4 7
5 17
6 1
7 5
8 2
9 2
10 17
11 1
12 5
13 6
14 1
15 3
16 1
17 1
18 6
19 1
20 14
21 10
22 1
23 4
24 1
25 2
26 12
27 4
28 17
29 7
30 11
31 8
32 9
33 5
34 3
35 4
36 1
37 2
38 3
39 6
40 16
41 16
42 5
43 10
44 2
45 9
46 2
47 5
48 6
49 5
50 1
51 8
52 17
53 8
54 2
55 16
56 1
57 6
58 11
59 13
60 1
61 1
62 2
63 3
64 2
65 1
66 2
67 4
68 1
69 10
70 1
71 3
72 1
73 2
74 1
75 2
76 4
77 5
78 5
79 3
80 3
81 4
82 1
83 2
84 17
85 4
86 17
87 17
88 9
89 4
90 7
91 6
92 3
93 16
94 8
95 1
96 9
97 2
98 9
99 11
100 17
101 17
102 18
103 3
104 4
105 5
106 1
107 2
108 4
109 1
110 1
111 8
112 7
113 8
114 2
115 9
116 15
117 3
118 5
119 2
120 5
121 1
122 1
123 17
124 4
125 16
126 1
127 6
128 1
129 4
130 2
131 2
132 4
133 8
134 1
135 1
136 3
137 1
138 2
139 1
140 16
141 16
142 12
143 1
144 1
145 4
146 2
147 16
148 8
149 10
150 4
151 12
152 3
153 17
154 1
155 7
156 3
157 5
158 16
159 5
160 1
161 1
162 2
163 3
164 1
165 3
166 8
167 9
168 12
169 3
170 4
171 2
172 5
173 3
174 8
175 4
176 9
177 16
178 1
179 5
180 3
181 19
182 7
183 17
184 5
185 8
186 4
187 17
188 12
189 9
190 11
191 13
192 8
193 2
194 2
195 5
196 2
197 5
198 11
199 17
200 16
201 1
202 11
203 4
204 1
205 1
206 5
207 7
208 17
209 17
210 18
211 18
212 18
213 7
214 17
215 7
216 1
217 16
218 3
219 6
220 1
221 4
222 9
223 5
224 17
225 2
226 17
227 3
228 17
229 8
230 16
231 1
232 1
233 3
234 1
235 2
236 1
237 1
238 5
239 4
240 1
241 9
242 12
243 7
244 7
245 6
246 2
247 12
248 17
249 1
250 13
251 13
252 14
253 13
254 13
255 14
256 13
257 14
258 10
259 8
260 4
261 9
262 10
263 17
264 7
265 2
266 1
267 9
268 5
269 7
270 3
271 15
272 2
273 8
274 17
275 12
276 9
277 5
278 1
279 4
280 3
281 7
282 2
283 1
284 3
285 1
286 1
287 1
288 2
289 1
290 3
291 5
292 1
293 1
294 6
295 17
296 1
297 4
298 17
299 7
300 9
301 2
302 10
303 16
304 1
305 13
306 5
307 3
308 1
309 2
310 2
311 1
312 1
313 1
314 2
315 11
316 9
317 4
318 17
319 2
320 7
321 6
322 4
323 7
324 9
325 16
326 16
327 8
328 6
329 1
330 1
331 4
332 17
333 9
334 14
335 15
336 18
337 7
338 10
339 2
340 11
341 3
342 15
343 19
344 8
345 2
346 1
347 2
348 1
349 1
350 3
351 2
352 4
353 12
354 12
355 1
356 1
357 5
358 7
359 12
360 10
361 6
362 1
363 3
364 6
365 10
366 7
367 13
368 10
369 1
370 16
371 13
372 5
373 5
374 1
375 1
376 4
377 1
378 8
379 1
380 16
381 1
382 3
383 14
384 5
385 6
386 6
387 9
388 13
389 2
390 2
391 9
392 15
393 15
394 15
395 11
396 15
397 15
398 15
399 15
400 6
401 12
402 9
403 4
404 1
405 4
406 10
407 5
408 4
409 2
410 1
411 4
412 4
413 4
414 3
415 4
416 9
417 11
418 7
419 11
420 4
421 2
422 1
423 3
424 11
425 1
426 3
427 2
428 4
429 1
430 17
431 17
432 9
433 1
434 4
435 10
436 4
437 1
438 6
439 17
440 9
441 8
442 17
443 1
444 11
445 3
446 6
447 11
448 10
449 13
450 4
451 7
452 1
453 8
454 3
455 1
456 2
457 5
458 5
459 3
460 2
461 6
